000 000 000 000 -99 -99 000 000 -99 -99 -99 -99 -99 000 000 -99 -99 -99 000 000 000 -99 -99 000 000 001 002 002 001 002 001
000 000 000 000 000 000 000 000 000 000 -99 -99 -99 000 000 -99 -99 -99 -99 000 000 000 000 -99 000 000 000 001 001 002 000
000 -99 000 000 000 000 000 000 000 000 -99 -99 -99 -99 000 -99 -99 -99 -99 -99 -99 000 000 000 000 000 000 001 000 -99 001
000 000 000 000 000 000 000 000 000 000 -99 000 -99 -99 -99 -99 -99 -99 -99 -99 -99 -99 000 000 000 000 000 001 000 -99 000
000 000 000 000 000 000 000 000 000 000 -99 000 000 -99 -99 -99 -99 -99 -99 -99 000 000 000 000 000 000 000 000 000 -99 000
000 000 000 000 000 000 000 000 000 000 000 000 000 -99 -99 -99 -99 -99 -99 -99 000 000 000 000 001 000 -99 000 000 -99 000
000 000 000 000 000 000 000 000 000 000 000 000 000 000 000 -99 000 000 000 000 000 000 000 000 000 002 -99 -99 -99 -99 -99
000 000 000 000 000 000 000 000 000 000 000 000 000 000 000 000 000 000 000 000 000 000 000 000 000 002 -99 -99 -99 -99 -99
000 000 000 000 000 000 000 000 000 000 000 001 000 000 000 000 000 000 000 000 000 000 000 000 000 001 -99 -99 -99 -99 -99
000 000 000 000 000 000 000 000 000 000 000 001 001 001 000 000 000 000 000 000 000 000 -99 -99 000 000 -99 000 -99 000 000
000 000 000 000 000 000 000 000 000 000 001 001 003 003 001 000 000 000 000 001 000 000 -99 -99 000 -99 -99 000 000 000 000
000 000 000 000 000 000 000 000 000 000 000 002 004 009 002 000 000 000 000 000 000 000 -99 000 000 -99 -99 000 000 000 000
000 000 000 000 000 000 000 000 000 000 000 001 003 013 007 001 000 001 001 000 000 000 -99 000 000 000 000 000 000 000 000
000 000 000 000 000 000 000 000 000 000 000 001 002 008 013 002 000 001 001 000 000 000 000 000 000 000 000 000 000 000 000
000 000 000 000 000 000 000 000 000 000 001 001 002 002 006 002 001 001 001 001 000 000 000 000 000 000 000 000 000 000 000
000 000 000 000 000 000 000 000 000 000 000 001 002 003 004 001 001 001 001 000 000 000 000 000 000 000 000 000 000 000 000
000 000 000 000 000 000 000 000 000 000 000 000 001 002 003 001 001 001 001 000 000 000 000 000 000 000 000 000 000 000 000
000 000 000 000 -99 000 000 000 000 000 000 000 000 001 001 000 000 000 000 000 000 000 000 000 000 000 000 000 000 000 000
000 000 000 000 -99 000 -99 000 000 000 000 000 000 000 000 000 000 000 000 000 000 000 000 000 000 000 000 000 000 -99 -99
000 000 000 000 000 -99 000 000 000 000 000 000 000 000 000 000 000 000 000 000 000 000 000 -99 -99 -99 -99 -99 -99 -99 -99
000 000 000 000 000 000 -99 000 000 -99 000 000 000 000 000 000 000 000 000 000 000 000 000 -99 -99 -99 -99 -99 -99 -99 -99
000 000 000 000 000 000 000 000 000 -99 000 000 000 000 000 000 000 000 000 000 000 000 000 -99 -99 -99 -99 -99 -99 -99 -99
000 000 000 000 000 000 000 000 000 -99 -99 000 000 000 000 000 000 000 000 000 000 000 000 -99 -99 -99 -99 -99 -99 -99 -99
000 000 000 000 000 000 000 000 000 -99 -99 -99 -99 000 000 000 000 -99 000 000 000 000 000 -99 -99 -99 -99 -99 -99 -99 -99
000 000 000 000 000 000 000 000 000 -99 -99 -99 -99 000 000 000 000 000 000 000 000 000 001 -99 -99 -99 -99 -99 -99 -99 000
000 -99 000 000 000 000 000 000 000 -99 -99 -99 -99 000 000 000 000 000 000 000 000 000 002 -99 -99 -99 -99 -99 -99 -99 000
000 000 000 000 000 000 000 000 000 -99 -99 -99 -99 -99 -99 -99 000 000 000 000 000 000 001 -99 -99 -99 -99 -99 -99 -99 000
000 -99 000 -99 000 000 000 000 000 -99 -99 -99 -99 -99 000 000 000 000 000 000 000 000 001 -99 -99 -99 -99 -99 -99 -99 000
000 -99 -99 -99 000 000 000 000 000 000 -99 -99 -99 000 000 000 000 000 000 000 000 000 -99 -99 -99 -99 -99 -99 -99 -99 000
-99 000 000 -99 000 000 000 000 000 000 -99 -99 -99 000 000 000 000 000 000 000 000 000 -99 -99 -99 -99 -99 -99 -99 -99 000
-99 000 000 000 000 000 000 000 000 000 000 -99 -99 000 000 000 000 000 000 000 000 000 -99 -99 -99 000 000 -99 -99 -99 001
-99 000 000 000 000 000 000 000 000 -99 -99 -99 -99 000 000 -99 000 000 000 000 -99 000 -99 000 000 000 000 -99 000 000 004
000 000 000 000 000 000 000 000 000 -99 -99 -99 -99 000 000 -99 000 000 000 -99 -99 -99 000 000 000 000 -99 000 000 001 006
-99 000 000 000 000 000 000 000 000 -99 -99 -99 -99 000 000 000 000 000 000 -99 -99 -99 000 000 000 000 000 000 001 001 003
-99 000 000 000 000 000 000 000 000 000 -99 -99 -99 000 000 000 000 000 -99 -99 000 000 000 000 000 000 000 000 001 001 001
000 000 -99 000 000 000 -99 000 000 000 -99 -99 000 000 000 000 000 000 000 000 000 000 -99 000 000 000 000 000 001 001 000
000 000 -99 000 000 -99 -99 000 000 000 -99 -99 000 000 000 000 000 000 000 000 000 000 000 000 000 000 000 000 000 000 000
000 -99 -99 -99 000 -99 -99 000 000 000 -99 000 000 001 000 000 001 001 001 000 000 000 000 000 000 000 000 000 000 000 000
000 000 000 000 -99 -99 -99 -99 -99 000 000 000 003 002 000 002 004 002 001 000 000 000 000 000 000 -99 000 -99 -99 000 -99
000 000 000 000 -99 -99 -99 -99 -99 -99 000 003 004 001 001 002 005 005 003 000 000 000 000 000 -99 000 000 000 -99 -99 -99
-99 000 000 000 -99 -99 -99 -99 -99 000 001 008 003 002 001 004 007 010 000 000 000 000 000 000 000 000 000 -99 -99 -99 -99
-99 -99 -99 000 -99 -99 -99 -99 -99 000 001 004 002 002 002 011 021 009 000 000 000 000 000 000 000 000 001 001 000 -99 -99
-99 -99 -99 -99 -99 -99 -99 -99 -99 000 000 001 002 009 021 022 009 003 001 000 000 000 000 000 000 001 001 001 000 000 -99
000 -99 -99 -99 -99 -99 -99 -99 -99 -99 000 000 002 010 028 029 019 002 002 000 000 000 000 000 000 003 000 004 000 -99 -99
-99 -99 -99 -99 -99 -99 -99 -99 -99 -99 000 000 004 016 027 010 004 006 004 001 000 000 000 000 001 001 001 004 000 -99 000
-99 -99 -99 -99 -99 -99 -99 -99 -99 -99 000 001 004 015 007 001 003 015 022 001 000 000 000 000 002 002 001 003 -99 000 000
-99 -99 -99 -99 -99 -99 -99 -99 -99 000 000 000 003 005 002 000 001 015 011 000 000 000 000 000 002 001 002 002 000 000 000
-99 -99 -99 -99 -99 -99 -99 -99 000 000 -99 000 001 001 001 000 001 007 010 003 008 003 001 001 001 000 001 001 000 000 000
-99 -99 -99 -99 -99 -99 -99 -99 -99 000 -99 000 000 000 002 001 001 003 007 008 022 025 002 002 000 000 000 000 000 000 001
-99 -99 -99 -99 -99 -99 -99 -99 -99 -99 -99 -99 000 000 006 005 005 004 005 007 024 028 001 000 000 000 000 000 000 000 000
-99 -99 -99 -99 -99 -99 -99 -99 -99 -99 -99 -99 000 002 009 010 003 006 006 009 032 011 000 000 -99 000 000 -99 000 000 000
-99 -99 -99 -99 -99 -99 -99 -99 -99 -99 -99 -99 000 006 009 008 007 010 007 015 055 002 000 -99 -99 000 000 -99 -99 000 002
-99 -99 -99 -99 -99 -99 -99 -99 -99 -99 000 -99 000 002 005 005 010 015 012 022 003 001 000 000 -99 -99 -99 -99 -99 -99 003
-99 -99 -99 -99 -99 -99 -99 -99 -99 000 000 -99 001 000 003 003 005 008 010 005 002 002 000 000 -99 -99 -99 -99 -99 -99 002
-99 -99 -99 -99 -99 -99 -99 -99 000 000 000 000 000 000 000 000 003 004 002 005 007 005 002 000 -99 -99 -99 -99 -99 -99 003
